Route #1: 6 7 16 15 28 36 58 43 29 30 24 8 17 31 37 50 46 45 44 59 60 70 78 77 69 76 88 89 97 90 98 91 99 100 92 84 83 79 71 64 65 51 38 39 25 20 26 40 52 47 61 66 72 85 86 80 93 87 94 95 96 82 74 75 57 49 56 63 68 81 73 67 53 62 54 55 42 34 35 23 10 5 9 22 27 33 41 48 32 21 4 14 3 13 2 12 19 18 11 1
Cost 46546
